# b3lyp 6-31G(2df,p) opt Freq 

 titel

0 1
C 2.6446520264 -0.6575261501 -1.3765037106
C 1.8859456622 -0.0383347764 -0.2095756891
C 2.3369275985 -0.5292126293 1.2048380586
C 2.739675869 0.9108071862 1.5894253677
O 1.6908609766 1.6837057271 2.201889292
C 1.2781087355 2.2394516943 0.9291603209
C 2.3173522916 1.4105034265 0.1578632021
C 4.0910853006 1.1716435009 2.1836840361
O 5.054817315 0.4724514216 1.9895570163
H 2.4078894122 -1.7222196169 -1.4754234454
H 2.391540574 -0.1656416069 -2.3221565509
H 3.7269854707 -0.5698345875 -1.2291637929
H 0.8072576216 -0.1198468824 -0.3794148205
H 1.5675118556 -0.954608908 1.8516198994
H 3.2039641338 -1.1939540016 1.1715215609
H 0.2253270821 2.027343494 0.7046346231
H 1.4389582251 3.3241092447 0.9021147093
H 2.9884618318 1.9301791592 -0.525757129
H 4.139632108 2.0928782046 2.805702322

