# b3lyp 6-31G(2df,p) opt Freq 

 titel

0 1
O -0.3740681714 1.2199214385 0.0044724483
C -0.7293237651 0.1020926628 0.7901267738
C -0.7800787337 0.4544817445 2.329522769
C -2.2631433345 0.4214838669 2.7286285757
C -3.2608105902 1.6066005322 2.6183044944
C -4.3466538115 0.6261162882 2.0613742592
C -2.9919386898 0.340890161 1.3745153461
C -2.1587053444 -0.4326906535 0.3997101728
O -2.8203580049 1.8408809025 1.2328825248
H -1.0249987854 1.9020667813 0.2247573511
H 0.0340959388 -0.6531101921 0.5835260481
H -0.2246069364 -0.2829018221 2.9161307384
H -0.288452668 1.4185153261 2.4739134943
H -2.5229113442 -0.3417405521 3.4668754293
H -3.4006315293 2.4818915488 3.2543285056
H -4.7450852433 -0.1397851549 2.7310197532
H -5.1105629423 1.0967808069 1.442405973
H -2.2558687126 -1.506794668 0.5938507629
H -2.3625260819 -0.2371354671 -0.6548639499

