# b3lyp 6-31G(2df,p) opt Freq 

 titel

0 1
C 1.5081314917 -0.0501736564 0.04180331
C 0.0542120919 -0.0331823572 -0.026079342
C -1.1485627769 -0.0344210439 -0.0938633577
C -2.6117199186 -0.0004851893 -0.1247494866
O -3.1829474484 -0.6161778234 1.0324236185
C -3.1375128288 1.4382151012 -0.3094534329
C -4.6443179746 1.4805449373 -0.4024307882
C -5.341916919 1.5164257592 -1.694962079
O -5.2166271202 2.6938056306 -0.8954265514
H 1.8607847876 -0.7889849182 0.7696944434
H 1.944693661 -0.3086014004 -0.9290967416
H 1.9073279268 0.9262082076 0.3370518888
H -2.9711479464 -0.6109767565 -0.9630703648
H -2.7057597322 -0.2790400167 1.7988027869
H -2.8007197603 2.0464578825 0.539616171
H -2.699167211 1.877233854 -1.2117152401
H -5.172218838 1.0482286761 0.4461565272
H -4.7627371358 1.5166673074 -2.6182027035
H -6.3498447487 1.1130955962 -1.7813182479

