# b3lyp 6-31G(2df,p) opt Freq 

 titel

0 1
C 0.9397076288 -0.4768761687 0.9788128588
C 0.9211991248 0.1508143912 -0.4189978178
C 1.8056886379 -0.5687075031 -1.4110015091
C 1.7411431235 -0.1073665277 -2.9095252305
O 2.1839006954 -1.2712180445 -3.611642007
C 2.4096894621 -2.2369791402 -2.5540904568
O 1.401561047 -1.9441663863 -1.6199489503
C 3.6815503087 -1.7943349283 -1.8351117589
C 3.2991345485 -0.7320102209 -1.1260666461
H 0.6189753127 -1.5206255777 0.9341368493
H 1.9442940673 -0.4551043065 1.4129713819
H 0.2693246901 0.0618919865 1.6544925867
H -0.1019085996 0.1581303165 -0.8125136614
H 1.244593309 1.1983722551 -0.3706221571
H 0.7095885492 0.1253922733 -3.1970634767
H 2.3894674086 0.7482325318 -3.1251662348
H 2.3283351765 -3.2429890253 -2.9597900502
H 4.6746940461 -2.1825094624 -2.0117478853
H 3.9044944933 -0.0251416427 -0.5749093547

