# b3lyp 6-31G(2df,p) opt Freq 

 titel

0 1
C 0.2005192687 -0.7379396044 -0.3272332881
C 1.5292375923 -0.0907571076 -0.0518542946
C 2.2501890903 -0.3372770464 1.274212329
C 3.1189196957 0.9050465034 1.4765175458
C 4.3758379132 0.828991908 2.2978226925
O 2.3255270817 2.0984729696 1.6360323406
C 2.9179917691 1.8333367528 0.3529460396
C 1.9509133295 1.2048690044 -0.6068727869
O 2.4475871356 -0.0252650969 -1.1615902042
H -0.5338630004 -0.4483361353 0.4314063412
H -0.17481986 -0.445074076 -1.3107966541
H 0.2909142143 -1.8297586305 -0.3085397128
H 1.5408378463 -0.4514970535 2.1012538306
H 2.8578829589 -1.247230469 1.2201994364
H 4.1475521959 0.5320036629 3.327518713
H 5.0654533602 0.0886653692 1.8794109941
H 4.8766566315 1.7997370789 2.3275018432
H 3.6754840289 2.5402121709 0.0233653695
H 1.3229814883 1.8032037495 -1.2624547647

