# b3lyp 6-31G(2df,p) opt Freq 

 titel

0 1
C -0.1246941117 -0.3686654875 0.0962225207
C 1.3758220409 -0.1193516205 0.0724988709
O 2.0118376002 -1.0146999097 0.9480818205
C 2.196696777 0.0128682032 -1.3260842133
C 3.3139996636 0.7048409354 -0.5251359018
C 1.9609096678 1.3474376414 -0.0671021199
O 1.8926264227 2.7667268991 0.153625104
C 1.9726232274 2.8871726779 -1.3222446892
C 1.5020531093 1.4021451694 -1.5144334632
H -0.5029202153 -0.2279959577 1.1169382849
H -0.6971451257 0.2938883183 -0.5508611106
H -0.3283095779 -1.4034218954 -0.195640925
H 1.4562796842 -1.1305864149 1.7250624642
H 2.3032999985 -0.8072660718 -2.037785301
H 3.8511090352 0.1041662527 0.2024448607
H 3.9776635265 1.3461676718 -1.1029792179
H 1.2438274524 3.6154316128 -1.6843666856
H 2.9791552904 3.1719483037 -1.6360975767
H 0.4314516243 1.3790338918 -1.7030144417

