# b3lyp 6-31G(2df,p) opt Freq 

 titel

0 1
C -0.046569459 0.1166186317 0.0945037782
C 1.4879551298 0.0552973634 0.0257923735
C 2.1241727297 1.4299088733 0.0471193528
C 2.8825717475 1.6646113191 1.119488781
C 2.9613808777 0.4613813102 2.0111693805
O 4.1980246843 -0.2943439793 1.8638910757
C 3.5530029199 -1.265468514 1.0143325016
C 2.1556355285 -0.6309951029 1.2416848462
O 1.2285419733 -1.4213314859 1.9389829796
H -0.3799859523 0.6221278508 1.0048384249
H -0.4387352076 0.6685780496 -0.765879607
H -0.4781205769 -0.8865329677 0.0887356848
H 1.761829383 -0.4739775734 -0.8977432949
H 1.9355844695 2.146831898 -0.7464599256
H 3.4127219088 2.5872576702 1.3269525935
H 2.7389558049 0.6451534559 3.0688719313
H 3.9273396647 -1.2338400741 -0.01692876
H 3.6567762306 -2.2875857959 1.4019823932
H 1.6695727537 -1.8008773589 2.7063086609

