# b3lyp 6-31G(2df,p) opt Freq 

 titel

0 1
C 1.3820518431 -0.3939829001 0.4941783593
C 0.7190048834 0.0691050854 -0.7775397465
C 0.7737586533 0.9838055848 0.4391616483
C -0.6790371011 1.1689960043 0.869597777
C -1.3713727867 -0.1295366544 0.4192805366
C -0.7627513161 -0.2295098433 -0.9906435237
O -1.3678354507 0.8120886374 -1.7768828026
C -1.1054014178 2.1065649185 -1.2737612483
O -1.2823750363 2.2397680772 0.1221657597
H 0.9409490223 -1.1754932543 1.101557662
H 2.4662074097 -0.4276674623 0.4707125649
H 1.329194553 0.2509365464 -1.6547433456
H 1.4248983436 1.8497298504 0.4719130697
H -0.8177761744 1.4283197048 1.9212595992
H -1.135382291 -0.9866636699 1.0530373297
H -2.4538104279 -0.0074923317 0.376240994
H -0.9727259445 -1.1601958378 -1.521891172
H -0.0892218777 2.4200651428 -1.555175569
H -1.8340051142 2.7729499618 -1.7419519225

