# b3lyp 6-31G(2df,p) opt Freq 

 titel

0 1
O -4.7036322792 1.001709033 -3.9934425678
C -4.336124263 0.6245580055 -2.673317693
C -2.9895219321 1.0558791434 -2.2968033546
C -1.8639467469 1.4023062442 -2.0405212073
C -0.5115923516 1.8140243829 -1.678634104
C -0.1420658731 1.4147965151 -0.2439671318
C 1.3502830146 1.5587136204 0.1282452057
O 1.5059672652 0.1314542532 0.2503152494
C 0.1014424688 -0.0902827372 0.0015477302
H -4.0024110629 0.7042203576 -4.5824248378
H -5.0794630106 1.088674196 -2.0154942849
H -4.4234460836 -0.4644976002 -2.52943599
H 0.2121993634 1.3648944404 -2.3723610735
H -0.4098232063 2.9017274806 -1.7903171068
H -0.8349304481 1.8798783175 0.459778746
H 1.9988117264 1.98056866 -0.6512726836
H 1.5521293217 2.0772417046 1.0741644492
H -0.0685975868 -0.746296663 -0.8613525359
H -0.4070929061 -0.5149622638 0.8758515406

