# b3lyp 6-31G(2df,p) opt Freq 

 titel

0 1
C -2.5653481878 2.2081387156 3.0532900157
C -2.469470715 0.9053850288 2.2726411748
C -2.9115399224 -0.3954673542 3.0013230653
O -1.6672942618 -1.0481628841 2.6841590208
C -1.1093866276 0.1625418002 2.1280914903
C -0.7873770713 0.0286557372 0.6264800088
O 0.2956989181 0.8485729977 0.1962861831
C -2.0559259374 0.5130266791 -0.0308985587
C -2.9415458578 0.9883067449 0.8447176256
H -2.1484193074 2.0978723072 4.059640701
H -2.0213915044 3.0097285779 2.5437809618
H -3.6088819306 2.527561913 3.1572617649
H -3.0420660185 -0.2771001165 4.0857800719
H -3.7759698209 -0.9274508097 2.5876021767
H -0.2552272699 0.5325126018 2.7085189473
H -0.5906691526 -1.0306854204 0.4011890753
H 1.1147210684 0.4201162402 0.4658819703
H -2.1866125746 0.4779249183 -1.1063781844
H -3.9174355064 1.3895951329 0.5877499395

