# b3lyp 6-31G(2df,p) opt Freq 

 titel

0 1
O 0.4609869991 0.2176685968 1.0811759971
C -0.749511406 0.6728051841 0.5439285331
C -1.9436744374 -0.2707307033 0.4657660798
C -1.872765446 0.8065643103 1.5003636304
C -1.9345596989 0.6507686496 3.019836101
C -1.2397446701 1.9317552822 3.5296170232
C -1.9843739963 2.9461160221 2.5972771363
C -2.8638183912 1.9182093713 1.8506680373
O -3.337796629 1.0740199038 2.9483987832
H 0.8921245584 -0.3363719648 0.4218326353
H -0.6527460341 1.4188687958 -0.2468195228
H -2.6295991408 -0.1646990659 -0.3693256783
H -1.7839380054 -1.2916497009 0.7991559226
H -1.7738683334 -0.2950295125 3.5353310759
H -1.4444851966 2.1033081054 4.588289853
H -0.1596392714 1.9063368698 3.3703437739
H -2.5952415325 3.6618538437 3.1512090622
H -1.3142984079 3.4955722249 1.9306270949
H -3.6485826005 2.2638856174 1.177525412

