# b3lyp 6-31G(2df,p) opt Freq 

 titel

0 1
C 2.3306672374 -0.4800243671 0.5959648954
C 1.563922493 0.653599234 1.2990145334
C 1.9229076541 2.0111333356 0.7992421225
C 1.2147770906 2.9851990374 0.1589888017
C 2.1361357807 4.0651463363 -0.0657131698
O 1.925161411 5.2637171969 -0.663352334
C 0.6175987411 5.4957827587 -1.1510478446
C 3.3323655852 3.6684613671 0.4516392345
O 3.206549245 2.4134540101 0.9816984158
H 2.0516759261 -1.4524597989 1.0128347043
H 2.1146462019 -0.4914453596 -0.4766705521
H 3.4091648598 -0.3512638139 0.7204695655
H 0.485750005 0.5201788146 1.1644603723
H 1.7535630348 0.6006574661 2.3792512011
H 0.1730321409 2.9360835881 -0.1128459784
H -0.1255426155 5.474351279 -0.3428124995
H 0.6276828323 6.4902633562 -1.6005590127
H 0.3338959998 4.7589785691 -1.9142191032
H 4.3001009868 4.1324823603 0.5186768878

