# b3lyp 6-31G(2df,p) opt Freq 

 titel

0 1
C -2.0151897779 -1.8048742011 -0.9471449076
C -1.3903320933 -0.4400800878 -0.9795789969
C -2.0552845769 0.753607131 -1.620475351
C -0.7413371136 0.2126593217 -2.1684100945
C 0.5357049691 0.8576319507 -1.664758174
C 0.3639922845 0.8100615818 -0.1255663511
O -0.6131541284 -0.185111727 0.17407282
C 1.6244703265 0.4602873652 0.6458856802
O 2.7302508386 0.8076004688 0.3229756659
H -2.6946600044 -1.899357597 -0.0938204916
H -2.5892500853 -1.9848093598 -1.8599656211
H -1.2476415753 -2.5802775188 -0.8584495219
H -2.9485858273 0.5689809713 -2.2075434017
H -2.0559583117 1.7043686578 -1.0968865548
H -0.7355069751 -0.265594951 -3.1411031916
H 1.410931647 0.2752141797 -1.9677162976
H 0.6857857379 1.8820569532 -2.0145639185
H 0.0221852536 1.7895821943 0.2491016476
H 1.4341100819 -0.155156843 1.5521780101

