# b3lyp 6-31G(2df,p) opt Freq 

 titel

0 1
C 1.5028470624 0.1883681246 0.0218157978
C 0.0575700197 0.0180329552 0.0436370178
C -1.1374152587 -0.1336264396 0.0492200294
C -2.5946835075 -0.2655142913 0.0820033672
O -3.2430132951 0.6780346294 -0.7712971691
C -3.1287692703 -0.1641530275 1.5268092495
C -4.6549863273 -0.1355388899 1.6138610086
C -5.4201744376 -1.1852604832 0.8302668301
O -5.2164065312 0.689642531 2.2954130125
H 1.9122329205 0.2534657763 1.0357203314
H 1.9938218879 -0.6498535698 -0.484258092
H 1.7824013974 1.1051508726 -0.5086273905
H -2.8762991525 -1.2398397324 -0.3342883893
H -2.9270470661 1.5557826427 -0.5278867997
H -2.7586960466 -1.0236678711 2.1013819825
H -2.7510918847 0.7414881209 2.0094223952
H -4.9885117786 -2.1829478762 0.965350665
H -6.465260164 -1.1836196739 1.1416875828
H -5.3616134977 -0.9426240577 -0.2364793491

