# b3lyp 6-31G(2df,p) opt Freq 

 titel

0 1
C 1.5023258535 0.6567935597 -0.2519520093
C 0.1272772765 0.0580079053 -0.1622594665
C -0.0822217573 -1.2123995184 0.1963802853
C -1.445429731 -1.7891165913 0.2951291687
O -2.060246303 -2.250494588 -0.9281101669
C -2.5592216529 -1.0551663086 -0.3187338747
C -2.2560073965 0.2480625732 -1.0423077041
C -1.049423582 0.9890309016 -0.4536108278
O -0.7243864239 2.0106919441 -1.3929400491
H 1.6093659329 1.5164420625 0.4250488616
H 2.2712241613 -0.0725916656 0.0132209254
H 1.7028193442 1.0237527462 -1.2641971724
H 0.7579759946 -1.8615828134 0.4313353626
H -1.6390641692 -2.4412203471 1.1465590001
H -3.5568424896 -1.1620523433 0.1057571578
H -2.0286710714 0.022780695 -2.0887515257
H -3.1239863983 0.9134757091 -1.0314022429
H -1.3469411446 1.4548739134 0.50259797
H -0.1420008433 2.6453986455 -0.965579922

