# b3lyp 6-31G(2df,p) opt Freq 

 titel

0 1
C -1.3794620762 2.2744687713 -0.9833148384
C -0.7052717039 1.0267962711 -1.4731345657
O 0.358301104 1.2384628249 -2.4789902435
C 0.7469772686 -0.1471253894 -2.1373734728
C 2.1202098222 -0.5544952781 -2.5839388967
C -0.5045378816 -0.9301043234 -2.5270058544
C -1.4839212592 -0.1386426564 -2.0786121145
C 0.3868924236 0.2361214637 -0.6448438851
O 1.3245984389 1.0257935572 0.0098778274
H -2.2057554461 2.0224311327 -0.3112092821
H -0.6741514375 2.90516609 -0.4346814646
H -1.7809072786 2.8490045941 -1.8235847475
H 2.2924036418 -1.6137458825 -2.3686561851
H 2.2359136379 -0.3978157284 -3.6606776346
H 2.8850483112 0.0279822108 -2.0624187798
H -0.5400616601 -1.9049550406 -2.9921594118
H -2.5558524125 -0.2759141175 -2.0693243658
H 0.0601595919 -0.5529420004 0.0353953574
H 1.5816272955 1.7056799408 -0.6297622825

