# b3lyp 6-31G(2df,p) opt Freq 

 titel

0 1
C 0.0033772893 -0.0261766266 -0.1355828121
C 1.4996211994 -0.0324525027 0.0317445402
C 2.1626201659 -0.7422807369 1.2456407227
C 3.0542626155 0.5063922043 1.4292638312
O 2.46457927 1.5219371385 2.2848446854
C 2.1115523358 2.3576203705 1.1497967583
C 2.4238362144 1.213598537 0.2052540879
C 2.8673292121 0.9664650683 -1.2211331333
O 2.2003359416 -0.3221346541 -1.217375346
H -0.4903574809 0.2857178557 0.7903673525
H -0.3018008594 0.6462587898 -0.9432325293
H -0.3487374403 -1.0338776258 -0.3838666542
H 1.5085267475 -0.9353964359 2.0997444637
H 2.6922614302 -1.6562449572 0.965503044
H 4.1285156798 0.3933101641 1.6051214942
H 1.0749570972 2.7123210072 1.1971288897
H 2.7840528421 3.223266844 1.0670501066
H 2.4287010849 1.64267981 -1.9686863336
H 3.9443560349 0.8802268297 -1.4071887578

