# b3lyp 6-31G(2df,p) opt Freq 

 titel

0 1
C 1.2682085042 0.7504175789 0.5080324453
C 0.7166816083 -0.5383929691 -0.1167916621
C 1.5339453932 -0.9958243537 -1.2845107453
O 2.9480614046 -1.3437846494 -1.0758228475
C 2.7372104583 -1.5754423812 -2.4989505706
C 1.2925021034 -2.1261521804 -2.3365008761
C 0.7122331128 -1.143928518 -3.3844295529
C 1.8072492801 -0.3263964523 -2.6937216898
O 2.1379839831 0.9738046959 -2.9890406425
H 0.6726259001 1.0530157947 1.3738224299
H 2.300971688 0.6048766043 0.8371492328
H 1.2544330193 1.5703506496 -0.2169340468
H 0.6860478537 -1.3408883693 0.6304139753
H -0.3146505909 -0.3874126434 -0.4595152299
H 3.5647968834 -1.9520119446 -3.099540941
H 1.0172263723 -3.1559510955 -2.1228658958
H 0.8823930056 -1.3964470162 -4.4342254169
H -0.3180506478 -0.8129995219 -3.2289315101
H 2.8790621883 1.2225679716 -2.4222282761

