# b3lyp 6-31G(2df,p) opt Freq 

 titel

0 1
C -2.2900908799 0.2379975539 -0.1315705053
C -1.4102458545 1.4512423632 -0.3620712476
C -2.0518484955 2.7130922105 -0.9384646473
C -1.6503222207 2.6930313532 0.495322753
C 0.02202942 1.2579125105 -0.7643004844
O 0.7623873902 2.2005050888 -0.9655538893
C 0.5397096113 -0.1716208883 -0.9117951194
C 1.9993721877 -0.220870802 -1.3226066067
O 2.8182320009 -0.9177798577 -0.7826786196
H -3.2971938731 0.5525738833 0.1563478435
H -2.3886265072 -0.3768278498 -1.0329829524
H -1.907698209 -0.4013678812 0.6712562536
H -1.4388363191 3.2907627069 -1.6198579416
H -3.1044685653 2.6462503768 -1.1904546553
H -0.7688001466 3.2575958803 0.7748129089
H -2.419452257 2.6125613445 1.255535017
H 0.4037223195 -0.7380109019 0.0151808096
H -0.0566538229 -0.6853796132 -1.6806664948
H 2.2613895013 0.4279773222 -2.1821690619

