# b3lyp 6-31G(2df,p) opt Freq 

 titel

0 1
C 1.9729125387 -0.8878100991 1.411899025
C 1.5151968714 -0.157803417 0.1433823676
C 2.1236051273 -0.656668884 -1.18130932
C 1.4461403526 -0.0580417385 -2.451415665
C 0.8233259954 -1.4284875361 -2.7207543816
O -0.0188124992 -1.830073004 -3.4681537132
C 1.6329246341 -2.1007515553 -1.5960966677
C 3.6333113408 -0.5633386704 -1.2010170253
O 4.278341371 -0.0142313417 -2.05873448
H 1.8209918434 -1.969458906 1.3325566892
H 3.0297319782 -0.7149892488 1.6338481847
H 1.3990309025 -0.5378974734 2.2749397338
H 0.4248167775 -0.2460859467 0.0545142632
H 1.7222585782 0.915470827 0.2394686519
H 0.7440370618 0.7667622221 -2.3041015295
H 2.1810603083 0.2308325361 -3.2098461616
H 1.0433671484 -2.6509029484 -0.8575943545
H 2.4175129689 -2.7628178034 -1.9778838682
H 4.1434529606 -1.0802807621 -0.359009289

