# b3lyp 6-31G(2df,p) opt Freq 

 titel

0 1
C -0.080722182 0.012758502 0.1408679488
C 1.4103049642 -0.0140004904 0.015401901
O 2.1453042159 0.856742285 0.8961931104
C 3.2823715681 0.5795291288 0.0247456466
C 3.5908285353 -0.8825703358 0.3865454661
C 2.2347627141 -1.3898030254 -0.1452706377
C 2.357713078 -1.0783323359 -1.6651525938
C 2.2947786738 0.3751357285 -1.2071553486
O 2.0598535083 1.3975731892 -2.107955993
H -0.3890717477 -0.3134054077 1.1399496394
H -0.4685090674 1.0229015706 -0.0238761382
H -0.5409141915 -0.6568867285 -0.5918386432
H 4.0603333 1.342565523 0.0544111791
H 4.4420259252 -1.3174703553 -0.1444696817
H 3.731402871 -0.9901551456 1.4642497109
H 1.843079253 -2.3402954851 0.2101598523
H 3.2464585008 -1.4410914757 -2.1886164259
H 1.4589680908 -1.3397478835 -2.2301401589
H 1.94887507 2.2154459917 -1.6085990035

