# b3lyp 6-31G(2df,p) opt Freq 

 titel

0 1
C -2.0276168862 -1.0715788644 -2.2586898566
C -2.1480884915 -0.768384928 -0.7710485812
O -0.950942477 -1.2231528187 -0.0952278892
C -0.1470937806 -0.1933601794 0.2933975245
O 0.9219237192 -0.3769466548 0.8007225282
C -0.8312381174 1.1371510038 0.0112538115
C -1.4217107603 1.7960376565 1.2895556483
C -2.7842362119 1.1131824019 0.9751666441
C -2.2534461444 0.7252391758 -0.4387436914
H -1.7996185495 -2.128671725 -2.4172249943
H -2.9668967454 -0.8369117908 -2.7696912515
H -1.2291985666 -0.4765487692 -2.7146778261
H -2.9770171115 -1.3372936563 -0.3360159292
H -0.1965371859 1.7551999274 -0.6256290987
H -0.9318234736 1.5438008046 2.2321101754
H -1.4658303057 2.8834046155 1.198141472
H -2.9831491425 0.2396706148 1.602765325
H -3.6646245101 1.7580927875 0.9959075508
H -2.6952161891 1.3003438387 -1.2534429716

