# b3lyp 6-31G(2df,p) opt Freq 

 titel

0 1
C -0.4527764406 2.0018226896 -1.3540948455
C -0.7843067056 1.3035007985 -0.0263488495
C -2.1940815493 0.7616313843 0.0506897262
O -2.4629647543 0.0783225955 1.2826731914
C -2.203439973 -0.7155728786 0.1099921647
C -3.3335663574 -1.5804927465 -0.3745650521
C -0.7739303475 -1.2186230365 0.1000793638
C 0.0954406728 0.0483906319 0.1656211014
O 1.2897721452 0.0647317811 0.3017948577
H -0.6625120214 1.3525987887 -2.2112124045
H -1.0432100408 2.9154334677 -1.4717740617
H 0.6068160537 2.266923169 -1.3807024119
H -0.584669139 1.9887759467 0.8050650658
H -3.0272810619 1.3272603721 -0.3622415521
H -3.422290622 -2.4830310444 0.2398386372
H -4.2808809943 -1.0380233931 -0.3205861451
H -3.1672950898 -1.8953588074 -1.4102203897
H -0.5471021653 -1.8786470852 0.9426850475
H -0.5357224597 -1.7682778636 -0.8192113435

