# b3lyp 6-31G(2df,p) opt Freq 

 titel

0 1
O 1.0102091759 0.6008546849 0.0060607397
C 0.1119186505 -0.0050137328 0.5246194695
O -1.1291741379 0.4377401916 0.7630896251
C -1.4540143904 1.7887175382 0.3504540694
C -1.5603393266 2.7116330867 1.5551225251
C -2.0641248909 4.1305590104 1.1619262646
C -1.2880494021 5.0423497199 2.0814152078
C -0.299912436 4.4045007736 2.7049182689
C -0.226765113 2.9463957476 2.3215990695
H 0.1832588192 -1.043065836 0.8853937349
H -0.6934656212 2.135451517 -0.3530077214
H -2.4150415651 1.7066309053 -0.1656114556
H -2.2832045483 2.2740704226 2.2523730255
H -1.8421500217 4.3628918819 0.1088086792
H -3.1502415556 4.2277155704 1.2715128911
H -1.5100045651 6.0998488642 2.1725628127
H 0.4094469548 4.8627925624 3.3853128175
H 0.6457349395 2.7504145381 1.6835610249
H -0.1274940661 2.2823110838 3.1875706617

