# b3lyp 6-31G(2df,p) opt Freq 

 titel

0 1
C -3.2774560631 1.8155506839 1.2236497737
C -2.0174365489 0.9648580453 1.2723011065
O -2.3634227704 -0.4218714758 1.4468839935
C -1.8281687004 -1.0664120471 0.2667875743
O -2.0244543711 -0.1026587376 -0.7476917151
C -1.2394492062 0.907127121 -0.0896799169
C 0.0701948394 0.1730179499 0.2026842353
C 1.3979420471 0.8357765451 0.3401324107
C -0.3108302376 -1.0902885597 0.413888732
H -3.8752185856 1.6589639631 2.1258684221
H -3.0237058507 2.8795680287 1.1602384151
H -3.8810552996 1.5392411376 0.3554690572
H -1.362021686 1.2797809754 2.0933495108
H -2.3754928817 -1.9872485307 0.0770576323
H -1.2062018458 1.8297846563 -0.6675350205
H 1.3778539665 1.6145764072 1.1133228161
H 2.177053424 0.1176113274 0.6084884343
H 1.6942816902 1.3308284442 -0.5932294556
H 0.2781883299 -1.9300587041 0.755975764

