# b3lyp 6-31G(2df,p) opt Freq 

 titel

0 1
C 2.5378145157 -0.8739321778 0.879055596
C 2.9713538836 -1.2853466665 -0.5273262053
C 1.7452159473 -1.3312694617 -1.4142627807
C 0.8381876344 -2.4887444442 -1.4361135377
O 1.6766790529 -2.1919332112 -2.5535944036
C 4.3090416558 -0.6410649501 -1.0408825651
C 4.5351314372 -1.8182684479 -2.0150331403
C 4.0974673422 -2.3709904822 -0.6376708843
O 5.0379538389 -1.4130412846 -0.0066697184
H 1.8553786099 -1.6148962814 1.3090531115
H 3.4067857808 -0.7741186388 1.5288263475
H 2.0044534528 0.0834976092 0.8549870261
H 1.293092904 -0.3516406913 -1.5863131434
H 1.1054538045 -3.3878453696 -0.8822839553
H -0.2285494736 -2.3435020076 -1.5986468374
H 4.5642541193 0.4148306417 -1.1470851994
H 3.8712285263 -1.9488475605 -2.8657181906
H 5.5858226391 -1.9979335826 -2.2434978252
H 4.1049165387 -3.3955947529 -0.2625593444

