# b3lyp 6-31G(2df,p) opt Freq 

 titel

0 1
C -0.1893304072 2.2590459154 0.922567986
C -0.9473792369 1.2909824997 0.0262408427
C -1.4850542212 1.815241074 -1.339386005
C -2.8125705993 1.0471931126 -1.0878269929
C -2.3719498007 0.7805965638 0.3822276224
C -2.1749219954 -0.67667307 0.7911232621
O -0.9154424499 -1.0818010716 0.2225275966
C -0.1652474549 -0.0108426548 -0.1595134214
O 0.9490304025 -0.1332713093 -0.5816890753
H -0.029784685 1.8443714348 1.9240340768
H 0.7926298067 2.4749424323 0.490848086
H -0.7392114677 3.1994321569 1.0275057067
H -1.6162347742 2.9004936465 -1.3192014727
H -0.9033681219 1.5505481022 -2.2248910125
H -3.732977731 1.620020383 -1.2137139712
H -2.8975159887 0.1279397387 -1.6744785858
H -2.9204358021 1.3577651685 1.1280216165
H -2.1175401754 -0.8038783192 1.8785427504
H -2.9461777576 -1.3471746734 0.4010728605

