# b3lyp 6-31G(2df,p) opt Freq 

 titel

0 1
C 1.5542738222 0.0484857783 -0.0642906401
O 0.2147441556 -0.2993439032 0.2969120468
C -0.3507760117 0.4954181792 1.2347056437
O 0.2223454764 1.4336629157 1.7407652295
C -1.7286089522 0.0923066728 1.5667731454
C -2.4329831732 -0.8994879146 1.0094372227
C -3.8290547979 -0.9827828519 1.5674883897
C -3.7692542123 -0.0620630937 2.8158198649
C -2.535115617 0.8505892684 2.5989938834
H 2.2163191681 -0.0028663043 0.8042559008
H 1.8574688863 -0.6788012248 -0.8178889881
H 1.5955208814 1.0617310198 -0.4728788741
H -2.063747224 -1.5471008523 0.2235508408
H -4.5526089527 -0.6225369339 0.8215475609
H -4.1293420592 -2.0090697636 1.8068964786
H -4.6918579803 0.5028858934 2.9672151111
H -3.6168140237 -0.6755141547 3.7092522003
H -2.81322743 1.8389277314 2.2103537068
H -1.9692852658 1.0345329482 3.516488437

