# b3lyp 6-31G(2df,p) opt Freq 

 titel

0 1
C 0.4954099249 0.8328061865 -0.7841162111
O -0.0183437362 -0.1293945154 0.1603944475
C 1.358399501 0.1694585137 0.184443422
C 2.4494023843 -0.8910615336 0.1008934109
C 3.6802138283 -0.3277365236 -0.6270110863
C 4.2932264642 0.8077470554 0.2343369771
C 3.2372274588 1.5763077723 1.0717170739
C 2.1000886828 0.6103581498 1.4404198341
O 2.6450576782 -0.7438103498 1.543617279
H 0.4903088014 0.5091790613 -1.8243348349
H 0.1758033259 1.8609911041 -0.6182764568
H 2.1660184664 -1.9073711046 -0.1832456881
H 4.4271081652 -1.1115352293 -0.7877425206
H 3.3772427546 0.0302450149 -1.6183400265
H 4.9953894393 0.3478953614 0.932874502
H 4.871823111 1.4968359689 -0.3871534618
H 3.7072219877 1.9826947788 1.9728168632
H 2.8195727771 2.427190675 0.5201391465
H 1.5139257353 0.8954697741 2.3173750298

