# b3lyp 6-31G(2df,p) opt Freq 

 titel

0 1
O -0.7593674334 0.7002968422 -1.2428913012
C 0.3310144223 1.2499866653 -0.5235687019
C -0.0974210017 1.9623280157 0.7534866555
C 1.0918998737 2.4791221106 1.6194659591
C 0.6776175458 1.5231077339 2.7812390302
C -0.5406694778 1.0218277678 1.9120317517
C -1.5393670542 1.6489128318 2.9230143147
C -0.3344354668 2.1630622221 3.7392820578
O -0.2291916149 2.7937119206 4.7505296693
H -1.1695103461 0.0267724214 -0.6909181868
H 1.0845484795 0.4801611313 -0.2844696941
H 0.8074710187 1.9658515931 -1.2027385584
H -0.8445943653 2.7189183449 0.4940593044
H 2.0677380793 2.2228432204 1.1975429417
H 1.0973809864 3.5435209232 1.8642098007
H 1.4518450846 0.8928799306 3.2201896261
H -0.6951767146 -0.0327247589 1.6755195237
H -2.2367692119 2.4043343349 2.5487377869
H -2.1095664636 0.9094554691 3.4961710207

