# b3lyp 6-31G(2df,p) opt Freq 

 titel

0 1
C 0.6422264808 -0.3653383632 -1.0086124377
C 1.2181529067 0.1131808332 0.3125125583
O 1.4240333172 1.5112797838 0.2300184966
C 1.9607250106 2.0482344926 1.4216622586
C 2.1535769877 3.4858186609 1.2831495864
C 2.3033348295 4.676324824 1.191415297
C 2.5443661878 6.1055456672 1.0673819399
C 4.0225851118 6.4322564239 0.8398556452
O 4.5741293596 7.3851593942 1.3180707066
H 0.471093764 -1.4455173717 -0.9799316568
H -0.3092482249 0.1326809417 -1.2145966987
H 1.3300995436 -0.1433611837 -1.8291767192
H 0.5314592157 -0.1211593577 1.143955336
H 2.1712880598 -0.3988530924 0.5297377524
H 1.2893014713 1.8456893359 2.2747093058
H 2.924238376 1.565841568 1.6635934863
H 1.9968061964 6.5011904509 0.1979049579
H 2.1985266007 6.6669642945 1.9414706604
H 4.5504378356 5.7146007379 0.1751541952

