# b3lyp 6-31G(2df,p) opt Freq 

 titel

0 1
C 0.0411797782 0.2737378613 0.1729416471
C 1.5391317333 0.0901844726 0.0920569142
C 2.1541594667 -0.6527315823 1.2707673389
O 3.5524814458 -0.8238826865 1.2068383712
C 4.3112778412 0.2777688678 0.8043728823
C 4.0343390424 1.6991741084 1.2141674833
C 3.8002369901 1.2399132615 -0.2268350651
C 2.3861395043 1.0367966787 -0.6490530686
O 2.0516768193 -0.2565893431 -1.1963955367
H -0.2430516253 0.8409125022 1.0657028748
H -0.3214941648 0.8065108016 -0.7091833831
H -0.4648237916 -0.697270248 0.2153441767
H 1.8618630727 -0.1286891264 2.1962300964
H 1.7381009521 -1.6647275592 1.3249208563
H 5.3500714805 -0.0264404808 0.7444242897
H 3.1531778559 1.9193877247 1.8063438312
H 4.883177494 2.3402240323 1.4250553719
H 4.483810934 1.5871893059 -0.9955058041
H 1.9035222212 1.8678012094 -1.1650000163

