# b3lyp 6-31G(2df,p) opt Freq 

 titel

0 1
C 1.5099633946 -0.0941936807 0.0728548507
O 0.0976686208 0.0584740607 -0.0055876373
C -0.4388165542 0.7459156499 1.0578488311
C -0.6750197013 0.1137383918 2.4013028062
C -1.8486956267 0.6531221618 1.6109407886
C -1.9000910958 2.1755652351 1.7595357167
C -0.44491315 2.290279788 1.1668985673
C -0.4337057419 2.9529423875 -0.1856143645
O 0.3832459055 3.7615622698 -0.5451223322
H 1.800941344 -0.6304491892 0.9859481116
H 1.8134098541 -0.6742251915 -0.800777542
H 2.0211944244 0.8772874487 0.0518679431
H -0.5888067942 -0.968218358 2.3895877463
H -0.3608068767 0.5896825916 3.3278120664
H -2.6681601974 0.0166175618 1.302998705
H -2.6435803857 2.652087427 1.1148418681
H -2.0185688228 2.5591382857 2.7768972821
H 0.3255008185 2.7429145045 1.7963007988
H -1.2613043153 2.6312958357 -0.8592908759

