# b3lyp 6-31G(2df,p) opt Freq 

 titel

0 1
C 0.6535394874 1.2376709947 -3.2525798652
C 0.3949368303 0.1188657997 -2.2856687042
O 1.0130438545 -1.1503468043 -2.5982695213
C -0.4254513658 -1.0791396079 -2.5132708104
C -0.9988615511 -1.5837788826 -1.2049962658
C -0.005731249 -2.1600797082 -0.2267421583
C -0.406932322 -0.7099175214 -0.1175802168
C 0.4547127906 0.3829294355 -0.7705097193
O 1.7883622307 0.4776279866 -0.3035888668
H -0.1008871766 2.0248192354 -3.1493520704
H 1.6342227868 1.6835364502 -3.0548498898
H 0.6408832862 0.8701450096 -4.2816584317
H -0.9465320853 -1.2709116967 -3.4477416666
H -2.0320542722 -1.9096415775 -1.1951458087
H -0.3913840274 -2.8240644568 0.5391219377
H 0.9744216188 -2.4214700341 -0.604933423
H -0.9953726702 -0.4229221218 0.746206354
H 0.0061489121 1.3599191564 -0.5585621955
H 2.2351919524 -0.3260194068 -0.595997248

