# b3lyp 6-31G(2df,p) opt Freq 

 titel

0 1
O -3.552884346 0.6196456399 2.2516696491
C -3.0178954815 1.5162482878 1.3296330317
C -3.049058349 1.1278608078 -0.180254251
C -1.9511898166 2.2579035877 -0.2348773055
O -1.0963279158 2.4597343442 -1.3139078818
C -1.4818237939 1.7185090253 1.1453732778
C -2.8062753628 3.4925442129 0.099344085
C -2.7082870595 4.1492227656 1.4519491213
C -3.6039081153 2.9460714891 1.2678736661
H -3.4912809813 1.0186740706 3.1262083518
H -2.6556193305 0.1243614944 -0.3687850968
H -3.9801657903 1.29513079 -0.7273225983
H -0.628290154 1.6369678237 -1.4883536338
H -0.9855255923 0.7498501886 1.0471876584
H -0.9146765185 2.3585253131 1.8218542815
H -3.2663522782 4.0155593255 -0.7310358771
H -1.8030205108 4.1047932243 2.0449525209
H -3.2279923285 5.0987011471 1.5391180053
H -4.6816641853 3.0468858123 1.3355274053

