# b3lyp 6-31G(2df,p) opt Freq 

 titel

0 1
C 2.5495328362 1.1008475846 -0.7944665918
C 1.5232096665 0.0708513741 -0.3048521818
C 1.8721136122 -0.5057509902 1.0979324066
C 2.6969206862 -1.7599929808 0.8175714313
C 3.3457560184 -2.588523178 1.8341520739
O 4.1184594663 -1.7061468418 1.0102598168
C 2.2611687622 -2.2556715279 -0.5309653205
O 0.8322686137 -2.2866166943 -0.6648553555
C 1.5417424851 -1.162136829 -1.1994272694
H 2.5389117618 1.9907514839 -0.1580437272
H 3.5624765941 0.6852600951 -0.7728320969
H 2.3361211119 1.4203253269 -1.8202070618
H 0.5264037255 0.5250330993 -0.2986916606
H 2.4346889863 0.1986158857 1.7151758086
H 0.9603011433 -0.781089564 1.6336007962
H 3.2746367542 -2.3033717694 2.8832456524
H 3.5003003654 -3.6518033785 1.6540808599
H 2.8205916168 -3.0321231236 -1.0448006418
H 1.5077346438 -1.0604265823 -2.2817677384

