# b3lyp 6-31G(2df,p) opt Freq 

 titel

0 1
C -1.5220356125 0.3530573794 2.5612563218
C -2.3920700915 0.2567921873 1.3274605467
C -1.9883831793 0.8061413675 -0.0163832424
O -0.6250189597 1.1344590479 -0.2008034254
C 0.1557420506 0.0100503776 -0.1983418755
O 1.3430217278 0.0595548527 -0.3202903108
C -0.7301074405 -1.223740859 -0.0016530309
C -2.1412902847 -0.6872003872 0.1527279835
C -3.2865809347 -1.4671145865 -0.44826481
H -1.731074307 -0.4717607244 3.2506274118
H -0.4545894345 0.3321126495 2.3303859266
H -1.7173145661 1.2901271592 3.0924382245
H -3.4529785547 0.3872074565 1.5313099548
H -2.642364175 1.4282708675 -0.6158144538
H -0.6359381524 -1.8642909527 -0.8850188956
H -0.3534097363 -1.7976784713 0.8501678108
H -3.4510212834 -2.4089492006 0.0876177273
H -4.2197668428 -0.8967993749 -0.4041184101
H -3.0929765432 -1.7109456985 -1.4992964034

