# b3lyp 6-31G(2df,p) opt Freq 

 titel

0 1
O 2.0467385317 -1.6995906551 -3.0357635499
C 1.2683661488 -1.3797012663 -1.8899460199
C -0.2290733496 -1.3329202406 -2.2308794415
C -1.1139057592 -0.8068038628 -1.0828818543
C -0.5013140315 0.3444355149 -0.3021068138
C 0.3749343883 1.4474642931 -0.8456267788
O 1.1127018637 1.0733703174 -2.0104275892
C 1.6992070362 -0.0520970724 -1.2731411649
C 0.9774291173 0.3649822574 0.0152983588
H 1.884097187 -1.0078550142 -3.6878490645
H 1.4805013503 -2.1767396925 -1.165714898
H -0.3381968789 -0.6716316848 -3.0962979754
H -0.5609394974 -2.3285411543 -2.5400268286
H -2.0926043686 -0.5178500267 -1.484247465
H -1.3056091602 -1.6184162653 -0.3679525696
H -1.1093087501 0.6968973464 0.5294192968
H 0.2084662618 2.5060734427 -0.681052813
H 2.7884411588 0.0422916128 -1.2493389974
H 1.4066593917 0.3867024104 1.0077715084

