# b3lyp 6-31G(2df,p) opt Freq 

 titel

0 1
C -0.66269364 2.0666195835 -1.2517856074
C -0.7124095951 1.2671792368 0.0538425355
O -2.0175644491 0.7886740422 0.3630428208
C -2.1490628848 -0.5720524749 -0.0613502459
C -0.7525881103 -1.1562059744 0.0133215342
C -0.3556889513 -2.3352856236 0.8890483581
C -0.3112128512 -2.4631073413 -0.5990089337
C 0.1712488023 0.0173143255 -0.0211337051
O 1.3755807256 -0.0057305991 -0.0986788452
H -0.984427896 1.4570038573 -2.1023150919
H -1.3207704607 2.9364582754 -1.183448398
H 0.3605878973 2.4048698174 -1.4385643722
H -0.3823517602 1.8985435364 0.886824894
H -2.8675878932 -1.0571858803 0.6057908578
H -2.5476298036 -0.6201511747 -1.0871204449
H 0.5859545498 -2.2458459766 1.419864313
H -1.1534854825 -2.8302519782 1.4326084436
H 0.6620708093 -2.4587233582 -1.0786631795
H -1.0727247464 -3.0591470531 -1.0913297132

