# b3lyp 6-31G(2df,p) opt Freq 

 titel

0 1
C -0.0072403559 0.1670674135 0.0066564312
C 1.477530711 0.013386122 0.0985854023
C 2.3461612251 -1.2913991817 0.2876000092
C 3.2751753838 -0.1045833625 -0.0438490171
C 4.6249757846 0.5164722988 -0.2422645953
C 4.1955640788 2.0143876043 -0.0686509887
O 2.9950802429 2.0670313126 0.7417067116
C 2.5490845728 0.7618625794 0.9737541285
O 2.2919093675 0.3181804502 -1.0900679933
H -0.478136792 -0.1071853048 0.9557296735
H -0.2617010295 1.2067567534 -0.2196724359
H -0.4156334998 -0.4719233857 -0.7824607496
H 2.417835803 -1.7415544787 1.2816082818
H 2.2154573846 -2.0244328147 -0.5079336998
H 5.3195384333 0.1992712757 0.5414090389
H 5.0767175331 0.3354703981 -1.2195595942
H 4.9693140249 2.6103381647 0.4262442397
H 3.974127219 2.4553908498 -1.0446847531
H 2.5798660828 0.5002790055 2.0381086303

