# b3lyp 6-31G(2df,p) opt Freq 

 titel

0 1
C 0.2962505426 0.616448621 0.1007460739
C 1.1522818778 -0.6236551279 -0.0854909324
C 2.2976403035 -0.491812981 -1.1079878384
C 3.3631271931 -1.4709453714 -0.6079788222
C 3.0713352154 -2.9605900064 -0.8449144719
O 3.9151490259 -3.6955923857 0.0490125383
C 2.6837056229 -3.175888263 0.5598102789
C 2.9524242272 -1.695090537 0.9045373505
O 1.8051464526 -0.9197718511 1.1554697419
H -0.4476303036 0.4570198432 0.8861846649
H 0.9191845914 1.4703788043 0.3845383113
H -0.2308229143 0.8601719861 -0.8269800909
H 0.5079556193 -1.4716577621 -0.3671120719
H 1.9649009936 -0.6988826729 -2.1294927212
H 2.6950350539 0.5285111621 -1.0861141234
H 4.3867957722 -1.1651623814 -0.8295638784
H 2.7521027302 -3.4622734784 -1.7521181129
H 1.9851064299 -3.8700940399 1.0131173959
H 3.6807849463 -1.5168075188 1.6979774877

