# b3lyp 6-31G(2df,p) opt Freq 

 titel

0 1
C -0.8197310829 1.842924938 -1.4768591437
C 0.1151418438 0.7206751345 -1.859043227
O 1.3061946104 1.1099546669 -2.5618823486
C 0.3045509095 0.3333768523 -3.2693546324
C 0.6445894701 -1.0697354351 -3.6114010899
C 1.1043892352 -1.9048216883 -2.6795462958
C 1.3154969112 -1.4560062342 -1.2582145267
C 0.3316912127 -0.3596218997 -0.8049442951
O 0.738423759 0.2029444985 0.4381746832
H -0.47954044 2.3220243876 -0.5549377026
H -0.8628056253 2.5915197778 -2.271433784
H -1.8300512309 1.4593537788 -1.2980234218
H -0.2217015419 0.9103356918 -4.0281882748
H 0.5079436931 -1.3873009113 -4.6402249206
H 1.3707600098 -2.9256919283 -2.9379057052
H 1.2478724572 -2.2972221128 -0.562082043
H 2.3343100557 -1.0556301176 -1.1608361634
H -0.6444698195 -0.8159758281 -0.5978280381
H 1.582077853 0.6449227394 0.2851035695

