# b3lyp 6-31G(2df,p) opt Freq 

 titel

0 1
C 1.1920711213 0.3000687207 -0.5136830079
O 0.795562406 1.6507709216 -0.172689557
C -0.5141059112 1.2017675377 0.2824429871
C -0.8820953071 1.6227153706 1.7067355763
C -1.7460988656 0.5378535699 2.3919879189
O -2.5191805407 -0.2135740022 1.4597665404
C -1.9673770595 -1.4708329226 1.1181568668
C -0.6405945875 -1.3889697541 0.4054064714
C -0.0922587855 -0.2327635181 0.0731084407
H 1.3115426638 0.169251719 -1.5986944638
H 2.1253479663 0.0005407551 -0.0187520228
H -1.2890109246 1.5309272673 -0.4221376059
H 0.0401941288 1.7733525583 2.2772168472
H -1.4096871201 2.5814675859 1.6845722553
H -1.1088946618 -0.140570661 2.9742268567
H -2.4523133082 1.0004546266 3.0897168426
H -1.8546401027 -2.0978582506 2.0214721889
H -2.7166039959 -1.9665011084 0.4872672898
H -0.1387780158 -2.3325683056 0.1990028651

