# b3lyp 6-31G(2df,p) opt Freq 

 titel

0 1
O 1.5483022188 0.1704669087 0.4428118406
C 0.3597163045 0.2554443319 0.2686839335
C -0.2941267142 0.7794726242 -0.9904816417
C -1.1738541942 2.0017239062 -0.7101105753
C -2.0170956373 2.5740324323 -1.8837316928
C -3.1958594222 2.7895056478 -0.8673840344
C -2.4834463189 1.8298724705 0.1127249102
C -4.5575551527 2.4082939743 -1.3768131373
O -5.1240339637 1.3772837715 -1.1119216308
H -0.3560711782 -0.050703478 1.0666754728
H 0.4907886468 1.0141651159 -1.7164081902
H -0.9222207229 -0.0223024445 -1.4050656052
H -0.5600005965 2.7989233905 -0.2770063326
H -1.6334291549 3.4527715238 -2.4052070789
H -2.2602510981 1.8022120869 -2.6207246704
H -3.216702432 3.8290266357 -0.5232046425
H -2.4632198982 2.1129559608 1.1666708607
H -2.9081499444 0.8257813204 0.024091868
H -5.0166085017 3.1475013912 -2.0735539938

