# b3lyp 6-31G(2df,p) opt Freq 

 titel

0 1
C 0.3406117492 -0.3325519186 0.1094448463
C 1.2733710332 0.7855158324 0.4522493946
O 2.0284639947 0.6682943176 1.6643079815
C 2.3501198417 2.0786432688 1.4817868202
C 3.3113523944 2.0188436278 0.2830842164
C 2.2013928312 1.4993100469 -0.6456277078
O 1.2878962824 2.6354953965 -0.6671407398
C 0.9718174948 2.2805120994 0.6845530055
C -0.2266883582 2.9254976727 1.3052038911
H -0.3566246906 -0.5251393482 0.9301466147
H -0.2323577949 -0.0774443427 -0.787039381
H 0.8975936536 -1.2542201017 -0.0894170955
H 2.619217449 2.5947845367 2.4015679245
H 3.6896926436 2.9827985268 -0.0625470302
H 4.1285168902 1.3202502403 0.4728757041
H 2.4270434625 1.0929877978 -1.6299023518
H -0.4032185785 2.5037855301 2.2992142169
H -0.0739225899 4.004627427 1.4119191103
H -1.1180524982 2.7657470904 0.6914220499

