# b3lyp 6-31G(2df,p) opt Freq 

 titel

0 1
C 2.5769567043 4.6224419468 1.847957818
C 1.9847545938 3.2652220736 1.5743250673
O 2.7320379682 2.394664529 0.7126153649
C 1.4684022328 2.8805906382 0.2526058379
C 0.3847239393 1.8740777587 0.101508366
C -1.1168247569 2.0940123212 -0.2335718804
C -0.8913158702 0.6201518534 0.1765775248
C 0.3613303062 0.5569092362 -0.7247551992
O -0.0342964356 1.088855599 1.2924163537
H 3.3960619106 4.5439232852 2.5702747646
H 2.9708247356 5.0687873221 0.9308032126
H 1.8207714714 5.2931857557 2.2697692422
H 1.5470836541 2.7500242678 2.4288369346
H 1.5286819037 3.6019645455 -0.5648003074
H -1.6667041223 2.6980959808 0.4891153426
H -1.3875013776 2.3076789362 -1.2707678987
H -1.622788055 -0.1540788781 0.4045146674
H 1.1124689279 -0.1755360144 -0.430338168
H 0.2254932 0.6309907131 -1.806639503

