# b3lyp 6-31G(2df,p) opt Freq 

 titel

0 1
C -0.106819088 0.2799146654 0.0307785092
C 1.3912115515 -0.0358786543 0.1192214192
C 1.9024648077 -0.8145747557 -1.0803118383
O 1.1524663671 -2.0390347489 -1.3811667376
C 2.3633922485 -2.7986561854 -1.4257606334
C 3.0195305675 -2.8228280072 -0.0877720494
C 3.2117212533 -1.6225727226 -0.9951510462
C 1.942319726 0.0170250551 -2.361053554
O 2.0848638633 1.2110012734 -2.3935521515
H -0.4414904775 0.8062329071 0.9290477408
H -0.3273714004 0.9173430544 -0.8304026118
H -0.6895516632 -0.6402294547 -0.0653878381
H 1.9706188064 0.8922456857 0.1713199576
H 1.6014671906 -0.6058196024 1.0293586955
H 2.4677642445 -3.5406669637 -2.2079106364
H 2.4155854408 -2.7633760682 0.8122695999
H 3.9003006996 -3.4533315458 -0.0123605613
H 4.1817266651 -1.2785651534 -1.3268453489
H 1.8447662672 -0.5971713588 -3.2831811252

