# b3lyp 6-31G(2df,p) opt Freq 

 titel

0 1
O -0.7728957997 0.1007503566 0.8876120428
C -0.204271172 -0.4520576822 -0.2920972005
C -0.4774209174 0.3726409265 -1.5283744598
C 0.5601006136 0.5145830464 -2.5983973865
C 0.2492678419 1.6921699116 -1.7019895998
C 1.1305687108 2.4588260144 -0.6980005148
C 0.4449025974 3.7920814045 -1.1482597937
C -0.4102131486 2.9694205604 -2.1345561581
O -1.2706930959 3.2315057895 -2.9290700893
H -1.7254828139 0.1562483285 0.7602399218
H 0.8733446426 -0.4963921689 -0.1035455318
H -0.5481391037 -1.4860235237 -0.4522993433
H -1.5135832504 0.3829511342 -1.8629747191
H 1.5186486648 0.0263094605 -2.4496273964
H 0.2347377997 0.584347379 -3.6310320589
H 0.9473559051 2.1907123021 0.3435178053
H 2.2028214497 2.4166016583 -0.9012086099
H -0.1381963503 4.3102604161 -0.3821027582
H 1.0980330862 4.5204272364 -1.6371203798

