# b3lyp 6-31G(2df,p) opt Freq 

 titel

0 1
C 0.8466246694 1.3362677365 -0.056404933
C 1.5258794598 -0.0236108048 -0.0600276201
C 0.0401857049 0.0836549582 0.0232905554
C -0.8627344878 -0.3704036262 1.1670451841
C -2.1539156826 0.3693134805 0.762469032
O -2.1440744386 0.2928642578 -0.6818515563
C -0.9552560996 -0.410811681 -1.0071672443
O -1.1060249911 -1.7853266033 -0.6874024176
C -1.0477304628 -1.8452884086 0.7565542645
H 0.9400451004 1.9488761185 0.8348766825
H 0.8303295064 1.9016472658 -0.982681401
H 1.9661710326 -0.372282123 -0.9887241298
H 2.0736563047 -0.3206666679 0.8288480145
H -0.5240154942 -0.2039451135 2.1893907539
H -3.0608373474 -0.1105998161 1.1482586395
H -2.1472716741 1.4211123557 1.0732920855
H -0.7514237664 -0.3061547675 -2.0716442247
H -1.9753425897 -2.2837798339 1.1424535347
H -0.2021510939 -2.4730536572 1.0628915502

