# b3lyp 6-31G(2df,p) opt Freq 

 titel

0 1
O -0.4069350974 -0.1778894533 -2.4097059286
C 0.0185116561 0.8494149398 -1.5207301523
C -0.2822951664 0.5002316356 -0.0440875727
C -1.7587628435 0.2669761094 0.1816084012
C -2.2819762685 -0.5577529547 1.3442494469
C -2.3715639268 -1.0796719557 -0.0653782135
O -3.5929322583 -1.0793926142 -0.7485236277
C 1.4494166115 1.0678900904 -1.7238005855
C 2.6282741698 1.2622780685 -1.8470154656
H -1.3624191926 -0.2608795738 -2.3103003831
H -0.5052412015 1.7914171073 -1.7590960234
H 0.2913990053 -0.3940139161 0.2227986796
H 0.0816780806 1.3178743474 0.589047976
H -2.4051545882 1.0971619558 -0.0962546056
H -1.5676248792 -1.0178320094 2.019531951
H -3.2014680048 -0.219403357 1.8087511798
H -1.6921441059 -1.8864081693 -0.3393287746
H -4.1080441936 -1.8351971904 -0.4467330897
H 3.6685906736 1.4347942395 -1.9721803422

