# b3lyp 6-31G(2df,p) opt Freq 

 titel

0 1
O 1.3362409934 0.5312488416 -0.065374727
C 0.2769818346 -0.2480453727 0.4428975959
C -0.8220265955 0.6358782788 1.0321750669
O -0.2498920264 1.4755480722 2.0191368458
C -2.12470288 -0.1270029915 1.3770535919
C -2.7253780752 0.3480071006 0.0274195984
C -1.5918376189 1.4288198961 -0.0822109235
C -2.0150883922 2.7668417304 0.2770246499
C -2.3957825446 3.8729887682 0.5546822175
H 1.4818690919 1.2269366259 0.5894503322
H -0.1073637785 -0.8578119815 -0.3820940226
H 0.6219813691 -0.9443716453 1.2302287795
H -0.0230155031 0.9278871542 2.7801044895
H -2.0410601108 -1.2037939855 1.5502483692
H -2.6258402833 0.3388128884 2.2290078396
H -2.6479348917 -0.4017182684 -0.7626829421
H -3.7429407011 0.7365503763 0.0522021805
H -1.052200124 1.4522080305 -1.0330583391
H -2.7144185238 4.8536864914 0.8070048576

